10 10 3

0 254 238 128 293 155 347 299 102 75 
387 0 204 335 426 387 445 483 94 194 
185 353 0 419 365 331 198 458 353 442 
118 448 469 0 391 408 413 469 200 67 
72 205 326 97 0 91 480 138 467 366 
83 205 166 227 96 0 470 353 412 56 
50 125 359 442 193 62 0 166 83 420 
285 259 326 303 488 481 335 0 84 278 
315 173 451 387 413 155 53 346 0 409 
229 198 320 235 198 395 300 346 295 0 

357.06 0 6
357.06 1 7
357.06 2 8
357.06 3 2
357.06 4 5
357.06 5 1
357.06 6 7
357.06 7 3
357.06 8 3
357.06 9 3

